n = 60;
capacity = 100;
size = [79, 78, 77, 76, 74, 72, 72, 72, 71, 70, 69, 68, 66, 65, 64, 63, 63, 61, 61, 59, 59, 56, 55, 54, 54, 54, 52, 49, 48, 48, 48, 47, 46, 44, 42, 41, 41, 41, 40, 40, 38, 37, 33, 31, 30, 29, 29, 28, 27, 27, 27, 27, 26, 25, 24, 24, 23, 23, 22, 22];
